p tdp 78 77
29 26
40 42
47 74
20 45
35 70
31 65
52 38
50 47
33 16
6 56
77 14
4 73
32 76
8 18
63 61
27 76
28 49
72 42
5 45
13 71
22 6
5 33
44 20
41 69
46 28
37 66
1 17
35 62
68 35
49 76
37 51
3 75
4 7
2 49
14 67
10 55
59 39
74 52
11 25
9 53
54 23
15 19
36 73
43 54
77 61
42 13
43 34
22 60
26 30
24 12
32 75
50 63
37 58
69 57
58 40
39 68
53 41
21 17
48 19
1 56
25 18
4 29
54 45
60 78
65 40
17 68
64 7
55 15
41 12
21 5
37 36
24 11
27 45
74 23
69 19
51 35
11 74
